
Gurobi 10.0.1 (win64) logging started Fri Oct  6 19:19:51 2023

Set parameter LogFile to value "./results//log/URT_13_deadline_heurFalse.log"
Gurobi Optimizer version 10.0.1 build v10.0.1rc0 (win64)

CPU model: AMD Ryzen 7 3700X 8-Core Processor, instruction set [SSE2|AVX|AVX2]
Thread count: 8 physical cores, 16 logical processors, using up to 16 threads

Optimize a model with 674 rows, 451 columns and 2671 nonzeros
Model fingerprint: 0x879ddd0a
Model has 1 quadratic constraint
Variable types: 0 continuous, 451 integer (396 binary)
Coefficient statistics:
  Matrix range     [1e+00, 1e+07]
  QMatrix range    [1e+00, 1e+00]
  QLMatrix range   [1e+00, 1e+01]
  Objective range  [1e+00, 1e+00]
  Bounds range     [1e+00, 1e+00]
  RHS range        [1e+00, 3e+07]
Presolve removed 99 rows and 168 columns
Presolve time: 0.01s
Presolved: 594 rows, 301 columns, 2647 nonzeros
Variable types: 0 continuous, 301 integer (228 binary)

Root relaxation: objective 0.000000e+00, 62 iterations, 0.00 seconds (0.00 work units)

    Nodes    |    Current Node    |     Objective Bounds      |     Work
 Expl Unexpl |  Obj  Depth IntInf | Incumbent    BestBd   Gap | It/Node Time

     0     0    0.00000    0    1          -    0.00000      -     -    0s
     0     0    0.00000    0   13          -    0.00000      -     -    0s
     0     0    0.00000    0    5          -    0.00000      -     -    0s
H    0     0                     137.0000000    0.00000   100%     -    0s
H    0     0                      89.0000000    0.00000   100%     -    0s
     0     0    0.00000    0    2   89.00000    0.00000   100%     -    0s
     0     0    0.00000    0    3   89.00000    0.00000   100%     -    0s
H    0     0                      65.0000000    0.00000   100%     -    0s
H    0     0                      64.0000000    0.00000   100%     -    0s
     0     0    0.00000    0   12   64.00000    0.00000   100%     -    0s
H    0     0                      57.0000000    0.00000   100%     -    0s
     0     0    0.00000    0    6   57.00000    0.00000   100%     -    0s
     0     0    0.00000    0   14   57.00000    0.00000   100%     -    0s
     0     0    0.00000    0    3   57.00000    0.00000   100%     -    0s
     0     0    0.00000    0    7   57.00000    0.00000   100%     -    0s
     0     0    0.00000    0    3   57.00000    0.00000   100%     -    0s
     0     0    0.00000    0    3   57.00000    0.00000   100%     -    0s
H    0     0                      52.0000000    0.00000   100%     -    0s
     0     2    0.00000    0    3   52.00000    0.00000   100%     -    0s
H   79   104                      40.0000000    0.00000   100%  14.4    0s
H  100   104                      38.0000000    0.00000   100%  13.0    0s
H  185   185                      37.0000000    0.00000   100%   9.6    0s
H  303   216                      35.0000000    0.00000   100%   8.1    0s
H 1723   250                      29.0000000    0.00000   100%   2.0    0s
H16077   310                      28.0000000    1.00000  96.4%   1.5    3s
H16205   356                      26.0000000    1.00000  96.2%   1.7    4s
H16232   362                      25.0000000    1.00000  96.0%   1.7    4s
H16233   348                      24.0000000    1.00000  95.8%   1.7    4s
 16406   397    3.00000   49   16   24.00000    1.00000  95.8%   1.9    5s
H16411   383                      23.0000000    1.00000  95.7%   1.9    5s
H16499   342                      22.0000000    1.00000  95.5%   1.9    5s
 26718  2739 infeasible   51        22.00000    1.00000  95.5%   6.9   10s
 41598  5002 infeasible   58        22.00000    1.00000  95.5%  11.7   15s
 65461  6730 infeasible   53        22.00000    3.00000  86.4%  13.6   20s
 118032  5422   12.00000   55   19   22.00000   11.00000  50.0%  14.0   25s

Cutting planes:
  Learned: 1
  Gomory: 2
  Cover: 1
  Implied bound: 2
  Projected implied bound: 2
  MIR: 6
  Flow cover: 19
  Zero half: 1
  Relax-and-lift: 1

Explored 154939 nodes (2101683 simplex iterations) in 28.76 seconds (10.02 work units)
Thread count was 16 (of 16 available processors)

Solution count 10: 22 23 24 ... 38

Optimal solution found (tolerance 1.00e-04)
Best objective 2.200000000000e+01, best bound 2.200000000000e+01, gap 0.0000%
Warning: constraint name "precedence between 0,0 to 0,2 if x_[0,0,0,2,3]=0, i.e. 0,2 before 0,0" has a space
Warning: constraint name "precedence between 0,0 to 0,2 if x_[0,0,0,2,3]=0, i.e. 0,2 before 0,0" has a space
Warning: default constraint names used to write mps file
